Minimize
  obj: x0 + x1 + x2 + x3 + x4 + x5 + x6 + x7

Subject To
  c0: x0 + x1 + x5 + x6 + x7 = 62
  c1: x2 + x3 + x4 + x5 + x6 = 60
  c2: x3 + x7 = 37
  c3: x0 + x1 + x2 + x4 + x6 = 66
  c4: x0 + x2 + x3 + x4 = 53
  c5: x1 + x2 + x6 + x7 = 64

Bounds
  x0 >= 0
  x1 >= 0
  x2 >= 0
  x3 >= 0
  x4 >= 0
  x5 >= 0
  x6 >= 0
  x7 >= 0

Generals
  x0 x1 x2 x3 x4 x5 x6 x7

End
